c  Bad case for Goldberg
c 256 vertices
p max 771 1025
n 1 s
n 771 t
a 1 2 256
a 2 258 256
a 2 257 256
a 2 256 256
a 2 255 256
a 2 254 256
a 2 253 256
a 2 252 256
a 2 251 256
a 2 250 256
a 2 249 256
a 2 248 256
a 2 247 256
a 2 246 256
a 2 245 256
a 2 244 256
a 2 243 256
a 2 242 256
a 2 241 256
a 2 240 256
a 2 239 256
a 2 238 256
a 2 237 256
a 2 236 256
a 2 235 256
a 2 234 256
a 2 233 256
a 2 232 256
a 2 231 256
a 2 230 256
a 2 229 256
a 2 228 256
a 2 227 256
a 2 226 256
a 2 225 256
a 2 224 256
a 2 223 256
a 2 222 256
a 2 221 256
a 2 220 256
a 2 219 256
a 2 218 256
a 2 217 256
a 2 216 256
a 2 215 256
a 2 214 256
a 2 213 256
a 2 212 256
a 2 211 256
a 2 210 256
a 2 209 256
a 2 208 256
a 2 207 256
a 2 206 256
a 2 205 256
a 2 204 256
a 2 203 256
a 2 202 256
a 2 201 256
a 2 200 256
a 2 199 256
a 2 198 256
a 2 197 256
a 2 196 256
a 2 195 256
a 2 194 256
a 2 193 256
a 2 192 256
a 2 191 256
a 2 190 256
a 2 189 256
a 2 188 256
a 2 187 256
a 2 186 256
a 2 185 256
a 2 184 256
a 2 183 256
a 2 182 256
a 2 181 256
a 2 180 256
a 2 179 256
a 2 178 256
a 2 177 256
a 2 176 256
a 2 175 256
a 2 174 256
a 2 173 256
a 2 172 256
a 2 171 256
a 2 170 256
a 2 169 256
a 2 168 256
a 2 167 256
a 2 166 256
a 2 165 256
a 2 164 256
a 2 163 256
a 2 162 256
a 2 161 256
a 2 160 256
a 2 159 256
a 2 158 256
a 2 157 256
a 2 156 256
a 2 155 256
a 2 154 256
a 2 153 256
a 2 152 256
a 2 151 256
a 2 150 256
a 2 149 256
a 2 148 256
a 2 147 256
a 2 146 256
a 2 145 256
a 2 144 256
a 2 143 256
a 2 142 256
a 2 141 256
a 2 140 256
a 2 139 256
a 2 138 256
a 2 137 256
a 2 136 256
a 2 135 256
a 2 134 256
a 2 133 256
a 2 132 256
a 2 131 256
a 2 130 256
a 2 129 256
a 2 128 256
a 2 127 256
a 2 126 256
a 2 125 256
a 2 124 256
a 2 123 256
a 2 122 256
a 2 121 256
a 2 120 256
a 2 119 256
a 2 118 256
a 2 117 256
a 2 116 256
a 2 115 256
a 2 114 256
a 2 113 256
a 2 112 256
a 2 111 256
a 2 110 256
a 2 109 256
a 2 108 256
a 2 107 256
a 2 106 256
a 2 105 256
a 2 104 256
a 2 103 256
a 2 102 256
a 2 101 256
a 2 100 256
a 2 99 256
a 2 98 256
a 2 97 256
a 2 96 256
a 2 95 256
a 2 94 256
a 2 93 256
a 2 92 256
a 2 91 256
a 2 90 256
a 2 89 256
a 2 88 256
a 2 87 256
a 2 86 256
a 2 85 256
a 2 84 256
a 2 83 256
a 2 82 256
a 2 81 256
a 2 80 256
a 2 79 256
a 2 78 256
a 2 77 256
a 2 76 256
a 2 75 256
a 2 74 256
a 2 73 256
a 2 72 256
a 2 71 256
a 2 70 256
a 2 69 256
a 2 68 256
a 2 67 256
a 2 66 256
a 2 65 256
a 2 64 256
a 2 63 256
a 2 62 256
a 2 61 256
a 2 60 256
a 2 59 256
a 2 58 256
a 2 57 256
a 2 56 256
a 2 55 256
a 2 54 256
a 2 53 256
a 2 52 256
a 2 51 256
a 2 50 256
a 2 49 256
a 2 48 256
a 2 47 256
a 2 46 256
a 2 45 256
a 2 44 256
a 2 43 256
a 2 42 256
a 2 41 256
a 2 40 256
a 2 39 256
a 2 38 256
a 2 37 256
a 2 36 256
a 2 35 256
a 2 34 256
a 2 33 256
a 2 32 256
a 2 31 256
a 2 30 256
a 2 29 256
a 2 28 256
a 2 27 256
a 2 26 256
a 2 25 256
a 2 24 256
a 2 23 256
a 2 22 256
a 2 21 256
a 2 20 256
a 2 19 256
a 2 18 256
a 2 17 256
a 2 16 256
a 2 15 256
a 2 14 256
a 2 13 256
a 2 12 256
a 2 11 256
a 2 10 256
a 2 9 256
a 2 8 256
a 2 7 256
a 2 6 256
a 2 5 256
a 2 4 256
a 2 3 256
a 3 259 1
a 4 260 1
a 5 261 1
a 6 262 1
a 7 263 1
a 8 264 1
a 9 265 1
a 10 266 1
a 11 267 1
a 12 268 1
a 13 269 1
a 14 270 1
a 15 271 1
a 16 272 1
a 17 273 1
a 18 274 1
a 19 275 1
a 20 276 1
a 21 277 1
a 22 278 1
a 23 279 1
a 24 280 1
a 25 281 1
a 26 282 1
a 27 283 1
a 28 284 1
a 29 285 1
a 30 286 1
a 31 287 1
a 32 288 1
a 33 289 1
a 34 290 1
a 35 291 1
a 36 292 1
a 37 293 1
a 38 294 1
a 39 295 1
a 40 296 1
a 41 297 1
a 42 298 1
a 43 299 1
a 44 300 1
a 45 301 1
a 46 302 1
a 47 303 1
a 48 304 1
a 49 305 1
a 50 306 1
a 51 307 1
a 52 308 1
a 53 309 1
a 54 310 1
a 55 311 1
a 56 312 1
a 57 313 1
a 58 314 1
a 59 315 1
a 60 316 1
a 61 317 1
a 62 318 1
a 63 319 1
a 64 320 1
a 65 321 1
a 66 322 1
a 67 323 1
a 68 324 1
a 69 325 1
a 70 326 1
a 71 327 1
a 72 328 1
a 73 329 1
a 74 330 1
a 75 331 1
a 76 332 1
a 77 333 1
a 78 334 1
a 79 335 1
a 80 336 1
a 81 337 1
a 82 338 1
a 83 339 1
a 84 340 1
a 85 341 1
a 86 342 1
a 87 343 1
a 88 344 1
a 89 345 1
a 90 346 1
a 91 347 1
a 92 348 1
a 93 349 1
a 94 350 1
a 95 351 1
a 96 352 1
a 97 353 1
a 98 354 1
a 99 355 1
a 100 356 1
a 101 357 1
a 102 358 1
a 103 359 1
a 104 360 1
a 105 361 1
a 106 362 1
a 107 363 1
a 108 364 1
a 109 365 1
a 110 366 1
a 111 367 1
a 112 368 1
a 113 369 1
a 114 370 1
a 115 371 1
a 116 372 1
a 117 373 1
a 118 374 1
a 119 375 1
a 120 376 1
a 121 377 1
a 122 378 1
a 123 379 1
a 124 380 1
a 125 381 1
a 126 382 1
a 127 383 1
a 128 384 1
a 129 385 1
a 130 386 1
a 131 387 1
a 132 388 1
a 133 389 1
a 134 390 1
a 135 391 1
a 136 392 1
a 137 393 1
a 138 394 1
a 139 395 1
a 140 396 1
a 141 397 1
a 142 398 1
a 143 399 1
a 144 400 1
a 145 401 1
a 146 402 1
a 147 403 1
a 148 404 1
a 149 405 1
a 150 406 1
a 151 407 1
a 152 408 1
a 153 409 1
a 154 410 1
a 155 411 1
a 156 412 1
a 157 413 1
a 158 414 1
a 159 415 1
a 160 416 1
a 161 417 1
a 162 418 1
a 163 419 1
a 164 420 1
a 165 421 1
a 166 422 1
a 167 423 1
a 168 424 1
a 169 425 1
a 170 426 1
a 171 427 1
a 172 428 1
a 173 429 1
a 174 430 1
a 175 431 1
a 176 432 1
a 177 433 1
a 178 434 1
a 179 435 1
a 180 436 1
a 181 437 1
a 182 438 1
a 183 439 1
a 184 440 1
a 185 441 1
a 186 442 1
a 187 443 1
a 188 444 1
a 189 445 1
a 190 446 1
a 191 447 1
a 192 448 1
a 193 449 1
a 194 450 1
a 195 451 1
a 196 452 1
a 197 453 1
a 198 454 1
a 199 455 1
a 200 456 1
a 201 457 1
a 202 458 1
a 203 459 1
a 204 460 1
a 205 461 1
a 206 462 1
a 207 463 1
a 208 464 1
a 209 465 1
a 210 466 1
a 211 467 1
a 212 468 1
a 213 469 1
a 214 470 1
a 215 471 1
a 216 472 1
a 217 473 1
a 218 474 1
a 219 475 1
a 220 476 1
a 221 477 1
a 222 478 1
a 223 479 1
a 224 480 1
a 225 481 1
a 226 482 1
a 227 483 1
a 228 484 1
a 229 485 1
a 230 486 1
a 231 487 1
a 232 488 1
a 233 489 1
a 234 490 1
a 235 491 1
a 236 492 1
a 237 493 1
a 238 494 1
a 239 495 1
a 240 496 1
a 241 497 1
a 242 498 1
a 243 499 1
a 244 500 1
a 245 501 1
a 246 502 1
a 247 503 1
a 248 504 1
a 249 505 1
a 250 506 1
a 251 507 1
a 252 508 1
a 253 509 1
a 254 510 1
a 255 511 1
a 256 512 1
a 257 513 1
a 258 514 1
a 259 515 256
a 260 515 256
a 261 515 256
a 262 515 256
a 263 515 256
a 264 515 256
a 265 515 256
a 266 515 256
a 267 515 256
a 268 515 256
a 269 515 256
a 270 515 256
a 271 515 256
a 272 515 256
a 273 515 256
a 274 515 256
a 275 515 256
a 276 515 256
a 277 515 256
a 278 515 256
a 279 515 256
a 280 515 256
a 281 515 256
a 282 515 256
a 283 515 256
a 284 515 256
a 285 515 256
a 286 515 256
a 287 515 256
a 288 515 256
a 289 515 256
a 290 515 256
a 291 515 256
a 292 515 256
a 293 515 256
a 294 515 256
a 295 515 256
a 296 515 256
a 297 515 256
a 298 515 256
a 299 515 256
a 300 515 256
a 301 515 256
a 302 515 256
a 303 515 256
a 304 515 256
a 305 515 256
a 306 515 256
a 307 515 256
a 308 515 256
a 309 515 256
a 310 515 256
a 311 515 256
a 312 515 256
a 313 515 256
a 314 515 256
a 315 515 256
a 316 515 256
a 317 515 256
a 318 515 256
a 319 515 256
a 320 515 256
a 321 515 256
a 322 515 256
a 323 515 256
a 324 515 256
a 325 515 256
a 326 515 256
a 327 515 256
a 328 515 256
a 329 515 256
a 330 515 256
a 331 515 256
a 332 515 256
a 333 515 256
a 334 515 256
a 335 515 256
a 336 515 256
a 337 515 256
a 338 515 256
a 339 515 256
a 340 515 256
a 341 515 256
a 342 515 256
a 343 515 256
a 344 515 256
a 345 515 256
a 346 515 256
a 347 515 256
a 348 515 256
a 349 515 256
a 350 515 256
a 351 515 256
a 352 515 256
a 353 515 256
a 354 515 256
a 355 515 256
a 356 515 256
a 357 515 256
a 358 515 256
a 359 515 256
a 360 515 256
a 361 515 256
a 362 515 256
a 363 515 256
a 364 515 256
a 365 515 256
a 366 515 256
a 367 515 256
a 368 515 256
a 369 515 256
a 370 515 256
a 371 515 256
a 372 515 256
a 373 515 256
a 374 515 256
a 375 515 256
a 376 515 256
a 377 515 256
a 378 515 256
a 379 515 256
a 380 515 256
a 381 515 256
a 382 515 256
a 383 515 256
a 384 515 256
a 385 515 256
a 386 515 256
a 387 515 256
a 388 515 256
a 389 515 256
a 390 515 256
a 391 515 256
a 392 515 256
a 393 515 256
a 394 515 256
a 395 515 256
a 396 515 256
a 397 515 256
a 398 515 256
a 399 515 256
a 400 515 256
a 401 515 256
a 402 515 256
a 403 515 256
a 404 515 256
a 405 515 256
a 406 515 256
a 407 515 256
a 408 515 256
a 409 515 256
a 410 515 256
a 411 515 256
a 412 515 256
a 413 515 256
a 414 515 256
a 415 515 256
a 416 515 256
a 417 515 256
a 418 515 256
a 419 515 256
a 420 515 256
a 421 515 256
a 422 515 256
a 423 515 256
a 424 515 256
a 425 515 256
a 426 515 256
a 427 515 256
a 428 515 256
a 429 515 256
a 430 515 256
a 431 515 256
a 432 515 256
a 433 515 256
a 434 515 256
a 435 515 256
a 436 515 256
a 437 515 256
a 438 515 256
a 439 515 256
a 440 515 256
a 441 515 256
a 442 515 256
a 443 515 256
a 444 515 256
a 445 515 256
a 446 515 256
a 447 515 256
a 448 515 256
a 449 515 256
a 450 515 256
a 451 515 256
a 452 515 256
a 453 515 256
a 454 515 256
a 455 515 256
a 456 515 256
a 457 515 256
a 458 515 256
a 459 515 256
a 460 515 256
a 461 515 256
a 462 515 256
a 463 515 256
a 464 515 256
a 465 515 256
a 466 515 256
a 467 515 256
a 468 515 256
a 469 515 256
a 470 515 256
a 471 515 256
a 472 515 256
a 473 515 256
a 474 515 256
a 475 515 256
a 476 515 256
a 477 515 256
a 478 515 256
a 479 515 256
a 480 515 256
a 481 515 256
a 482 515 256
a 483 515 256
a 484 515 256
a 485 515 256
a 486 515 256
a 487 515 256
a 488 515 256
a 489 515 256
a 490 515 256
a 491 515 256
a 492 515 256
a 493 515 256
a 494 515 256
a 495 515 256
a 496 515 256
a 497 515 256
a 498 515 256
a 499 515 256
a 500 515 256
a 501 515 256
a 502 515 256
a 503 515 256
a 504 515 256
a 505 515 256
a 506 515 256
a 507 515 256
a 508 515 256
a 509 515 256
a 510 515 256
a 511 515 256
a 512 515 256
a 513 515 256
a 514 515 256
a 515 516 256
a 516 517 256
a 517 518 256
a 518 519 256
a 519 520 256
a 520 521 256
a 521 522 256
a 522 523 256
a 523 524 256
a 524 525 256
a 525 526 256
a 526 527 256
a 527 528 256
a 528 529 256
a 529 530 256
a 530 531 256
a 531 532 256
a 532 533 256
a 533 534 256
a 534 535 256
a 535 536 256
a 536 537 256
a 537 538 256
a 538 539 256
a 539 540 256
a 540 541 256
a 541 542 256
a 542 543 256
a 543 544 256
a 544 545 256
a 545 546 256
a 546 547 256
a 547 548 256
a 548 549 256
a 549 550 256
a 550 551 256
a 551 552 256
a 552 553 256
a 553 554 256
a 554 555 256
a 555 556 256
a 556 557 256
a 557 558 256
a 558 559 256
a 559 560 256
a 560 561 256
a 561 562 256
a 562 563 256
a 563 564 256
a 564 565 256
a 565 566 256
a 566 567 256
a 567 568 256
a 568 569 256
a 569 570 256
a 570 571 256
a 571 572 256
a 572 573 256
a 573 574 256
a 574 575 256
a 575 576 256
a 576 577 256
a 577 578 256
a 578 579 256
a 579 580 256
a 580 581 256
a 581 582 256
a 582 583 256
a 583 584 256
a 584 585 256
a 585 586 256
a 586 587 256
a 587 588 256
a 588 589 256
a 589 590 256
a 590 591 256
a 591 592 256
a 592 593 256
a 593 594 256
a 594 595 256
a 595 596 256
a 596 597 256
a 597 598 256
a 598 599 256
a 599 600 256
a 600 601 256
a 601 602 256
a 602 603 256
a 603 604 256
a 604 605 256
a 605 606 256
a 606 607 256
a 607 608 256
a 608 609 256
a 609 610 256
a 610 611 256
a 611 612 256
a 612 613 256
a 613 614 256
a 614 615 256
a 615 616 256
a 616 617 256
a 617 618 256
a 618 619 256
a 619 620 256
a 620 621 256
a 621 622 256
a 622 623 256
a 623 624 256
a 624 625 256
a 625 626 256
a 626 627 256
a 627 628 256
a 628 629 256
a 629 630 256
a 630 631 256
a 631 632 256
a 632 633 256
a 633 634 256
a 634 635 256
a 635 636 256
a 636 637 256
a 637 638 256
a 638 639 256
a 639 640 256
a 640 641 256
a 641 642 256
a 642 643 256
a 643 644 256
a 644 645 256
a 645 646 256
a 646 647 256
a 647 648 256
a 648 649 256
a 649 650 256
a 650 651 256
a 651 652 256
a 652 653 256
a 653 654 256
a 654 655 256
a 655 656 256
a 656 657 256
a 657 658 256
a 658 659 256
a 659 660 256
a 660 661 256
a 661 662 256
a 662 663 256
a 663 664 256
a 664 665 256
a 665 666 256
a 666 667 256
a 667 668 256
a 668 669 256
a 669 670 256
a 670 671 256
a 671 672 256
a 672 673 256
a 673 674 256
a 674 675 256
a 675 676 256
a 676 677 256
a 677 678 256
a 678 679 256
a 679 680 256
a 680 681 256
a 681 682 256
a 682 683 256
a 683 684 256
a 684 685 256
a 685 686 256
a 686 687 256
a 687 688 256
a 688 689 256
a 689 690 256
a 690 691 256
a 691 692 256
a 692 693 256
a 693 694 256
a 694 695 256
a 695 696 256
a 696 697 256
a 697 698 256
a 698 699 256
a 699 700 256
a 700 701 256
a 701 702 256
a 702 703 256
a 703 704 256
a 704 705 256
a 705 706 256
a 706 707 256
a 707 708 256
a 708 709 256
a 709 710 256
a 710 711 256
a 711 712 256
a 712 713 256
a 713 714 256
a 714 715 256
a 715 716 256
a 716 717 256
a 717 718 256
a 718 719 256
a 719 720 256
a 720 721 256
a 721 722 256
a 722 723 256
a 723 724 256
a 724 725 256
a 725 726 256
a 726 727 256
a 727 728 256
a 728 729 256
a 729 730 256
a 730 731 256
a 731 732 256
a 732 733 256
a 733 734 256
a 734 735 256
a 735 736 256
a 736 737 256
a 737 738 256
a 738 739 256
a 739 740 256
a 740 741 256
a 741 742 256
a 742 743 256
a 743 744 256
a 744 745 256
a 745 746 256
a 746 747 256
a 747 748 256
a 748 749 256
a 749 750 256
a 750 751 256
a 751 752 256
a 752 753 256
a 753 754 256
a 754 755 256
a 755 756 256
a 756 757 256
a 757 758 256
a 758 759 256
a 759 760 256
a 760 761 256
a 761 762 256
a 762 763 256
a 763 764 256
a 764 765 256
a 765 766 256
a 766 767 256
a 767 768 256
a 768 769 256
a 769 770 256
a 770 771 256
